x
1	0	0	0	-0	0	0	-0	-0	0	-0	-0	0	-0	-0	
1	-0	0	-0	-0	-0	-0	0	-0	-0	-0	0	-0	-0	-0	
1	0	0	-0	-0	0	-0	-0	0	-0	0	-0	-0	-0	-0	
1	0	-0	-0	0	0	-0	0	0	0	0	0	-0	-0	-0	
1	0	0	-0	-0	-0	-0	-0	-0	0	0	-0	-0	-0	-0	
1	-0	-0	-0	0	-0	0	0	0	-0	-0	-0	-0	-0	-0	
1	-0	0	-0	0	-0	-0	0	-0	0	0	0	-0	-0	-0	
1	-0	-0	0	-0	0	-0	-0	-0	-0	0	-0	-0	-0	-0	
1	0	-0	0	0	0	0	-0	0	0	0	0	-0	-0	-0	
1	-0	0	0	0	-0	-0	-0	0	0	-0	-0	-0	-0	-0	
0	0	0	0	1	0	0	0	0	-0	0	0	0	0	0	
0	0	0	0	0	0	0	0	1	0	0	0	0	-0	-0	
-0	0	-0	-0	-0	-0	0	-0	0	-0	-0	0	1	0	0	
1	-0	0	0	-0	-0	0	-0	-0	-0	0	-0	-0	-0	-0	
1	-0	0	0	0	-0	-0	-0	0	-0	0	0	0	-0	-0	
-0	1	0	-0	-0	0	-0	0	0	0	0	-0	-0	-0	-0	
-0	1	0	0	-0	-0	-0	0	0	-0	-0	0	-0	-0	-0	
-0	1	0	-0	0	0	0	0	-0	-0	0	-0	-0	-0	-0	
-0	1	0	0	0	-0	-0	-0	-0	-0	-0	0	-0	-0	-0	
-0	1	0	0	0	0	0	0	0	-0	0	0	0	-0	-0	
-0	1	0	-0	0	0	-0	-0	-0	-0	0	0	-0	-0	-0	
-0	1	0	0	0	-0	0	-0	-0	0	0	-0	-0	-0	-0	
-0	1	0	-0	0	0	-0	0	-0	-0	-0	0	-0	-0	-0	
-0	0	1	0	0	0	0	0	-0	0	-0	0	-0	-0	-0	
-0	0	1	0	0	-0	0	-0	-0	-0	-0	-0	-0	-0	-0	
-0	0	1	-0	0	0	-0	0	0	-0	-0	-0	0	-0	-0	
-0	0	1	0	0	0	0	-0	-0	-0	-0	-0	-0	-0	-0	
-0	0	1	0	0	0	-0	-0	0	0	-0	-0	-0	-0	-0	
-0	0	1	-0	0	-0	-0	0	-0	-0	0	0	0	-0	-0	
-0	0	0	0	0	0	0	0	1	0	0	0	0	0	-0	
-0	0	1	0	0	-0	-0	-0	0	-0	-0	0	-0	-0	-0	
1	0	0	0	0	-0	0	0	-0	-0	0	-0	0	-0	-0	
0	1	-0	0	0	0	0	-0	0	-0	0	-0	0	-0	-0	
0	0	1	-0	-0	0	0	-0	0	-0	-0	-0	-0	-0	-0	
-0	1	0	-0	0	-0	-0	0	0	0	-0	0	0	-0	-0	
-0	0	1	-0	0	-0	0	0	0	0	0	0	-0	-0	-0	
-0	-0	1	0	0	0	0	0	-0	-0	-0	0	-0	-0	-0	
-0	-0	1	0	0	0	-0	-0	-0	0	-0	0	0	-0	-0	
-0	-0	1	0	0	0	0	0	-0	-0	0	-0	0	-0	-0	
-0	-0	0	0	1	0	-0	0	-0	-0	-0	-0	-0	-0	-0	
-0	-0	-0	-0	-0	-0	0	-0	-0	0	1	0	0	0	-0	
0	0	0	0	0	0	0	0	0	0	-0	1	0	0	-0	
0	0	0	0	0	0	0	0	0	-0	-0	0	1	-0	0	
-0	-0	0	-0	-0	-0	-0	-0	-0	0	-0	-0	1	0	-0	
-0	-0	0	0	0	1	0	0	0	-0	0	0	0	-0	-0	
-0	-0	0	0	0	1	0	0	0	0	-0	-0	-0	-0	-0	
-0	-0	0	0	0	1	0	0	0	-0	0	-0	0	-0	-0	
-0	-0	0	0	0	0	1	-0	-0	-0	0	0	0	0	-0	
-0	-0	-0	0	0	-0	-0	0	1	0	0	0	-0	-0	-0	
0	0	-0	1	-0	0	-0	0	-0	0	0	0	0	-0	-0	
0	-0	0	1	0	0	0	-0	-0	-0	-0	-0	0	-0	-0	
1	-0	-0	0	-0	0	0	-0	0	-0	0	-0	-0	-0	0	
-0	0	0	0	-0	1	0	0	0	0	0	-0	-0	-0	0	
-0	-0	0	0	0	1	0	-0	0	-0	0	-0	-0	-0	-0	
-0	-0	0	0	-0	1	0	0	0	0	-0	0	0	-0	-0	
0	0	0	1	0	0	0	0	0	0	0	0	0	0	-0	
-0	-0	0	0	-0	0	0	1	-0	0	0	-0	0	-0	-0	
0	-0	1	-0	-0	-0	0	-0	-0	0	-0	-0	0	-0	0	
0	0	1	0	0	0	0	0	0	0	0	0	0	0	-0	
0	0	0	0	0	0	1	0	0	-0	0	0	0	0	0	
0	0	0	1	0	0	0	0	0	0	0	0	0	-0	0	
0	0	0	1	0	0	0	0	0	-0	0	0	0	0	0	
0	0	0	0	0	0	0	0	1	-0	0	-0	-0	0	0	
0	0	-0	1	-0	0	-0	0	-0	-0	0	-0	-0	-0	0	
0	0	0	1	-0	0	-0	-0	0	0	-0	0	0	-0	0	
0	-0	-0	-0	-0	-0	1	-0	0	-0	0	0	0	-0	-0	
0	0	0	0	0	0	0	0	1	0	0	0	-0	0	0	
0	-0	0	-0	0	0	0	-0	0	-0	1	0	-0	-0	-0	
0	0	0	1	0	-0	0	0	-0	-0	0	0	0	-0	-0	
0	0	0	0	0	0	0	0	0	0	1	0	0	0	-0	
-0	0	-0	-0	-0	0	0	-0	0	-0	1	0	-0	-0	0	
-0	-0	0	-0	-0	1	0	-0	-0	0	-0	0	0	0	-0	
0	0	0	0	1	0	0	0	0	0	0	0	-0	-0	-0	
0	0	0	1	0	0	0	0	0	0	0	0	0	0	-0	
0	0	0	1	0	0	0	0	0	-0	-0	0	-0	0	-0	
-0	-0	0	-0	0	1	0	-0	0	-0	0	-0	-0	-0	-0	
-0	-0	0	-0	0	0	1	0	0	0	-0	-0	-0	-0	-0	
-0	-0	0	0	0	0	1	0	0	0	-0	0	0	-0	-0	
0	-0	-0	0	1	-0	0	-0	0	-0	0	-0	0	-0	-0	
0	0	0	0	0	0	1	-0	0	0	-0	0	-0	-0	-0	
-0	0	0	0	0	0	1	0	-0	0	0	0	0	-0	-0	
-0	-0	-0	0	0	0	0	1	0	0	0	0	0	-0	-0	
-0	-0	-0	0	0	0	0	0	1	-0	0	0	-0	-0	-0	
-0	-0	0	0	-0	0	0	0	1	0	0	0	0	-0	-0	
-0	0	0	0	0	0	1	0	0	0	0	0	0	0	0	
0	0	0	0	0	1	0	0	0	-0	-0	0	0	0	-0	
0	0	0	0	0	0	0	1	0	-0	-0	0	0	-0	-0	
0	-0	0	-0	0	-0	-0	0	0	-0	-0	0	-0	1	0	
-0	-0	0	0	0	0	0	0	0	-0	0	0	1	0	-0	
-0	-0	0	0	0	0	1	-0	-0	0	-0	-0	0	0	-0	
0	0	0	0	0	0	0	0	1	-0	0	-0	0	-0	0	
0	0	0	0	0	0	1	0	0	0	0	0	0	0	-0	
0	0	0	0	0	0	0	0	0	0	0	0	1	-0	0	
-0	0	0	1	0	0	0	0	0	0	-0	0	0	0	0	
0	-0	0	0	-0	-0	0	0	0	0	1	0	0	-0	-0	
0	-0	-0	0	-0	0	-0	0	0	0	0	0	1	-0	0	
0	0	-0	-0	-0	-0	0	-0	0	-0	1	0	-0	0	-0	
0	-0	-0	0	0	-0	0	-0	0	0	0	0	1	0	-0	
0	0	0	0	0	0	1	0	0	-0	-0	0	0	0	-0	
0	0	0	0	0	0	0	0	0	0	-0	0	1	-0	0	
0	0	-0	-0	-0	0	0	-0	0	0	0	0	1	0	0	
-0	0	0	-0	-0	-0	0	0	-0	-0	-0	0	1	0	-0	
0	-0	0	-0	0	0	-0	0	0	-0	-0	-0	1	0	-0	
-0	0	0	0	0	0	0	0	-0	0	-0	0	0	-0	1	
0	0	0	0	0	0	0	0	0	0	-0	1	0	-0	-0	
-0	-0	0	0	0	0	0	0	1	0	-0	0	0	-0	-0	
-0	-0	0	-0	0	0	0	0	1	-0	0	-0	0	-0	-0	
-0	-0	-0	0	0	-0	0	-0	0	1	0	-0	0	-0	-0	
-0	-0	-0	-0	-0	0	0	0	0	-0	0	0	0	0	1	
-0	-0	-0	-0	-0	-0	0	0	0	0	0	0	-0	0	1	
-0	-0	-0	0	0	0	1	-0	-0	0	-0	0	-0	-0	-0	
-0	-0	0	0	0	-0	-0	1	-0	0	0	0	-0	0	-0	
-0	-0	-0	0	-0	0	0	1	-0	-0	0	-0	-0	-0	-0	
-0	-0	-0	0	0	0	-0	-0	-0	0	0	1	0	-0	0	
-0	-0	-0	0	0	-0	-0	-0	-0	0	-0	0	1	-0	-0	
-0	-0	-0	0	0	0	0	1	0	0	-0	0	0	0	0	
-0	-0	-0	0	0	0	0	0	1	0	0	0	0	0	0	
-0	-0	-0	0	0	0	0	0	0	-0	0	0	1	0	0	
-0	-0	0	0	0	0	0	0	-0	-0	-0	0	0	0	1	
-0	-0	0	0	0	0	0	0	0	-0	0	0	0	1	-0	
-0	-0	-0	0	0	0	0	-0	-0	0	0	-0	0	1	0	
-0	-0	-0	-0	0	-0	0	0	-0	0	-0	0	-0	1	-0	
-0	-0	-0	0	0	0	0	1	0	0	0	-0	-0	-0	0	
-0	-0	-0	0	0	0	0	1	0	-0	0	0	-0	-0	-0	
-0	-0	-0	-0	-0	0	0	0	-0	0	-0	-0	-0	-0	1	
-0	-0	-0	-0	0	-0	-0	-0	-0	0	-0	0	-0	0	1	
-0	-0	0	0	-0	-0	-0	-0	0	0	0	0	-0	0	1	
-0	-0	-0	0	0	-0	0	1	0	0	0	0	-0	-0	-0	
-0	-0	-0	0	0	0	0	0	1	0	-0	-0	-0	0	0	
-0	-0	-0	0	-0	-0	-0	-0	1	0	-0	-0	-0	-0	0	
-0	-0	-0	0	0	0	0	0	0	-0	-0	0	0	1	0	
0	0	0	0	0	0	1	0	0	-0	-0	0	0	0	-0	
-0	-0	-0	-0	-0	1	0	-0	0	-0	-0	-0	0	0	0	
-0	-0	0	0	0	1	-0	0	0	-0	0	0	0	0	-0	
-0	-0	-0	0	0	0	1	0	0	0	0	0	0	0	-0	
-0	-0	-0	0	0	0	0	1	0	-0	-0	0	0	0	-0	
-0	-0	-0	0	0	0	0	-0	0	-0	0	-0	-0	0	1	
0	-0	-0	-0	0	-0	1	0	0	0	0	-0	0	-0	0	
0	0	0	0	-0	0	1	0	0	0	0	-0	0	0	0	
0	0	0	0	0	0	0	0	0	-0	0	0	0	1	0	
0	0	-0	-0	-0	-0	-0	-0	-0	0	1	0	-0	-0	-0	
-0	0	0	0	-0	-0	-0	0	0	0	-0	1	-0	0	-0	
-0	-0	0	-0	-0	-0	0	0	0	-0	-0	0	0	1	-4.58716e-08	
0	1	0	0	-0	0	0	-0	0	0	-0	0	0	-0	0	
-0	0	-0	0	0	0	0	0	0	0	-0	1	0	-0	-0	
-0	0	-0	0	-0	0	-0	-0	0	0	0	-0	0	-0	1	
-0	0	0	-0	-0	0	0	0	0	-0	0	-0	0	1	-0	
-0	0	0	-0	-0	0	-0	-0	0	-0	-0	0	0	1	0	
y
1	1	1	1	1	1	1	1	1	1	1	1	1	1	1	
Fmax = 0.4343
